N = 9;
H = 6;
T = 2;

avail = array3d(1..N, 1..H, 1..T, [8, 7, 5, 8, 0, 5, 0, 7, 5, 8, 10, 3, 9, 7, 2, 2, 10, 4, 8, 7, 8, 7, 3, 9, 1, 8, 10, 9, 3, 8, 0, 4, 6, 5, 3, 7, 9, 3, 9, 1, 9, 4, 1, 8, 3, 2, 0, 8, 0, 10, 0, 9, 3, 1, 6, 5, 10, 3, 8, 6, 5, 7, 5, 1, 4, 1, 9, 6, 8, 8, 0, 9, 8, 8, 2, 10, 9, 9, 5, 6, 1, 7, 9, 0, 5, 10, 6, 1, 9, 1, 6, 7, 8, 0, 7, 2, 1, 4, 5, 8, 5, 8, 4, 5, 3, 1, 10, 8]);

r = array2d(1..H, 1..T, [3, 2, 2, 1, 0, 0, 4, 3, 1, 0, 2, 4]);
